



7 7
0 4 5 1 6 17 3 12 2 17 1 9 4 7
4 11 5 6 3 18 6 16 2 14 1 8 0 12
4 16 6 18 3 5 1 1 2 9 0 5 5 12
2 15 1 19 5 10 0 8 6 18 4 19 3 2
0 16 3 15 2 1 4 8 6 18 1 9 5 13
6 15 3 10 0 12 2 15 1 15 4 1 5 17
6 12 1 3 5 11 2 18 4 2 3 9 0 12
